PatchBench/BenchmarksExist/FFmpeg/CWE-189-Numeric-Errors/CVE_2014_8549_550f3e9df3410b3dd975e590042c0d83e20a8da3/on2avc_decode_init_SnippetExist32.smt2
; benchmark generated from python API
(set-info :status unknown)
(declare-fun rdi () (_ BitVec 64))
(assert
 (let (($x50 (bvule ((_ extract 1 0) rdi) (_ bv2 2))))
 (let (($x47 (= ((_ extract 31 2) rdi) (_ bv0 30))))
 (and $x47 $x50))))
(check-sat)
